1, 4, 6, 20, 21, 60, 61, 63, 70, 78
5, 13, 15, 41, 46, 50, 56, 59, 64, 75
2, 19, 24, 49, 52, 53, 73, 78, 81, 91
2, 4, 26, 34, 38, 45, 59, 91, 95, 100
23, 26, 36, 41, 45, 47, 74, 87, 93, 95
1, 17, 30, 34, 49, 53, 71, 88, 95, 96
3, 10, 15, 27, 30, 45, 58, 59, 86, 93
15, 21, 26, 35, 65, 72, 82, 88, 93, 99
3, 7, 16, 19, 24, 53, 69, 82, 93, 100
3, 11, 17, 19, 21, 37, 78, 92, 93, 95
